p cnf 12 50 
8 -11 7 0
9 -4 -11 0
-2 8 10 0
-7 -5 1 0
-5 -12 -7 0
3 4 -2 0
10 -9 -11 0
3 12 -11 0
-10 5 1 0
7 -5 12 0
6 -12 -11 0
1 3 -9 0
4 -10 11 0
-12 3 9 0
-11 -9 -12 0
-1 -11 12 0
-4 -2 -5 0
5 12 1 0
10 -4 6 0
4 7 -9 0
10 -11 9 0
-2 10 8 0
-4 -2 12 0
10 8 1 0
-4 -3 -7 0
11 -1 9 0
3 -11 -5 0
-5 10 12 0
-9 -11 -10 0
-8 6 7 0
7 -6 2 0
12 3 2 0
1 8 4 0
8 -9 10 0
8 9 -5 0
3 -1 -9 0
-11 -5 -2 0
2 -5 -8 0
-11 -6 8 0
-11 4 9 0
-12 7 8 0
-1 3 -7 0
2 -4 -6 0
-11 -2 -8 0
-1 12 6 0
12 -2 -8 0
-3 -6 12 0
10 4 8 0
6 4 -10 0
8 5 -7 0
